$ This puzzle obtained from: https://teachinglondoncomputing.org/cut-hive-puzzles/

language ESSENCE' 1.0

letting height be 6
letting length be 7
letting numblocks be 9

letting blocks be 
[
    [1,2,2,2,0,0],
    [1,1,3,4,4,0],
    [1,3,3,4,4,6],
    [5,5,5,5,6,0],
    [0,7,7,7,6,6],
    [0,8,8,8,0,0],
    [0,9,9,9,0,0]
]

letting fixed be
[
    [0,0,0,0,0,0],
    [0,0,0,2,0,0],
    [0,1,0,0,0,4],
    [0,4,3,0,0,0],
    [0,0,0,0,0,0],
    [0,0,0,0,0,0],
    [0,0,0,0,0,0],
]